DIMENSION: 6
NODE_COORD_SECTION
1 -1732.4324324324 560.2373887240
2 -34.2891278375 275.5102040816
3 -54.4290288154 -6.6538090646
4 1517.1779141104 -167.8178963893
5 288.5564697083 -426.4094955490
6 295.4108858058 -44.1769681197
